&control
    calculation = 'bands'
    !restart_mode='from_scratch',
    prefix='nbfesb',
    pseudo_dir = '../../../../POTENTIALS/ONCV',
    outdir='./tmp'
 
/
&system
     ibrav= 2, celldm(1)= 11.338400
     nat=3, ntyp= 3,
     ecutwfc = 100,
     nbnd = 40

/
&electrons
    mixing_beta =0.7
    conv_thr =  1.0d-08
/
&ions
/
&cell
/
ATOMIC_SPECIES
Nb  92.906  Nb_ONCV_PBE-1.0.upf
Fe 55.845   Fe_ONCV_PBE-1.0.upf
Sb 121.76  Sb_ONCV_PBE-1.0.upf
 
ATOMIC_POSITIONS (crystal)
Nb       0.000000000   0.000000000   0.000000000
Fe       0.250000000   0.250000000   0.250000000
Sb       0.500000000   0.500000000   0.500000000
K_POINTS crystal_b
7
 0.0000   0.0000   0.0000  50   ! \Gamma
 0.5000   0.0000   0.5000  50   ! X
 0.5000   0.2500   0.7500  50   ! W
 0.3750   0.3750   0.7500  50   ! K
 0.0000   0.0000   0.0000  50   ! \Gamma
 0.5000   0.5000   0.5000  50   ! L
 0.6250   0.2500   0.6250  50   ! U 
