&control
    calculation = 'nscf'
    !restart_mode='from_scratch',
    prefix='nbfesb',
    pseudo_dir = '../../../../POTENTIALS/ONCV',
    outdir='./tmp'
    wf_collect = .true.
/
&system
     ibrav= 2, celldm(1)= 11.338400
     nat=3, ntyp= 3,
     ecutwfc = 100
     nbnd = 30

/
&electrons
    diagonalization = 'cg'
    mixing_beta =0.3
    mixing_mode = 'local-TF'
    conv_thr =  1.0d-012
/
&ions
/
&cell
/
ATOMIC_SPECIES
Nb  92.906 Nb_ONCV_PBE-1.2.upf
Fe 55.845  Fe_ONCV_PBE-1.2.upf
Sb 121.76  Sb_ONCV_PBE-1.2.upf
 
ATOMIC_POSITIONS (crystal)
Nb       0.000000000   0.000000000   0.000000000
Fe       0.250000000   0.250000000   0.250000000
Sb       0.500000000   0.500000000   0.500000000
 
K_POINTS crystal
1728
  0.00000000  0.00000000  0.00000000  5.787037e-04
  0.00000000  0.00000000  0.08333333  5.787037e-04
  0.00000000  0.00000000  0.16666667  5.787037e-04
  0.00000000  0.00000000  0.25000000  5.787037e-04
  0.00000000  0.00000000  0.33333333  5.787037e-04
  0.00000000  0.00000000  0.41666667  5.787037e-04
  0.00000000  0.00000000  0.50000000  5.787037e-04
  0.00000000  0.00000000  0.58333333  5.787037e-04
  0.00000000  0.00000000  0.66666667  5.787037e-04
  0.00000000  0.00000000  0.75000000  5.787037e-04
  0.00000000  0.00000000  0.83333333  5.787037e-04
  0.00000000  0.00000000  0.91666667  5.787037e-04
  0.00000000  0.08333333  0.00000000  5.787037e-04
  0.00000000  0.08333333  0.08333333  5.787037e-04
  0.00000000  0.08333333  0.16666667  5.787037e-04
  0.00000000  0.08333333  0.25000000  5.787037e-04
  0.00000000  0.08333333  0.33333333  5.787037e-04
  0.00000000  0.08333333  0.41666667  5.787037e-04
  0.00000000  0.08333333  0.50000000  5.787037e-04
  0.00000000  0.08333333  0.58333333  5.787037e-04
  0.00000000  0.08333333  0.66666667  5.787037e-04
  0.00000000  0.08333333  0.75000000  5.787037e-04
  0.00000000  0.08333333  0.83333333  5.787037e-04
  0.00000000  0.08333333  0.91666667  5.787037e-04
  0.00000000  0.16666667  0.00000000  5.787037e-04
  0.00000000  0.16666667  0.08333333  5.787037e-04
  0.00000000  0.16666667  0.16666667  5.787037e-04
  0.00000000  0.16666667  0.25000000  5.787037e-04
  0.00000000  0.16666667  0.33333333  5.787037e-04
  0.00000000  0.16666667  0.41666667  5.787037e-04
  0.00000000  0.16666667  0.50000000  5.787037e-04
  0.00000000  0.16666667  0.58333333  5.787037e-04
  0.00000000  0.16666667  0.66666667  5.787037e-04
  0.00000000  0.16666667  0.75000000  5.787037e-04
  0.00000000  0.16666667  0.83333333  5.787037e-04
  0.00000000  0.16666667  0.91666667  5.787037e-04
  0.00000000  0.25000000  0.00000000  5.787037e-04
  0.00000000  0.25000000  0.08333333  5.787037e-04
  0.00000000  0.25000000  0.16666667  5.787037e-04
  0.00000000  0.25000000  0.25000000  5.787037e-04
  0.00000000  0.25000000  0.33333333  5.787037e-04
  0.00000000  0.25000000  0.41666667  5.787037e-04
  0.00000000  0.25000000  0.50000000  5.787037e-04
  0.00000000  0.25000000  0.58333333  5.787037e-04
  0.00000000  0.25000000  0.66666667  5.787037e-04
  0.00000000  0.25000000  0.75000000  5.787037e-04
  0.00000000  0.25000000  0.83333333  5.787037e-04
  0.00000000  0.25000000  0.91666667  5.787037e-04
  0.00000000  0.33333333  0.00000000  5.787037e-04
  0.00000000  0.33333333  0.08333333  5.787037e-04
  0.00000000  0.33333333  0.16666667  5.787037e-04
  0.00000000  0.33333333  0.25000000  5.787037e-04
  0.00000000  0.33333333  0.33333333  5.787037e-04
  0.00000000  0.33333333  0.41666667  5.787037e-04
  0.00000000  0.33333333  0.50000000  5.787037e-04
  0.00000000  0.33333333  0.58333333  5.787037e-04
  0.00000000  0.33333333  0.66666667  5.787037e-04
  0.00000000  0.33333333  0.75000000  5.787037e-04
  0.00000000  0.33333333  0.83333333  5.787037e-04
  0.00000000  0.33333333  0.91666667  5.787037e-04
  0.00000000  0.41666667  0.00000000  5.787037e-04
  0.00000000  0.41666667  0.08333333  5.787037e-04
  0.00000000  0.41666667  0.16666667  5.787037e-04
  0.00000000  0.41666667  0.25000000  5.787037e-04
  0.00000000  0.41666667  0.33333333  5.787037e-04
  0.00000000  0.41666667  0.41666667  5.787037e-04
  0.00000000  0.41666667  0.50000000  5.787037e-04
  0.00000000  0.41666667  0.58333333  5.787037e-04
  0.00000000  0.41666667  0.66666667  5.787037e-04
  0.00000000  0.41666667  0.75000000  5.787037e-04
  0.00000000  0.41666667  0.83333333  5.787037e-04
  0.00000000  0.41666667  0.91666667  5.787037e-04
  0.00000000  0.50000000  0.00000000  5.787037e-04
  0.00000000  0.50000000  0.08333333  5.787037e-04
  0.00000000  0.50000000  0.16666667  5.787037e-04
  0.00000000  0.50000000  0.25000000  5.787037e-04
  0.00000000  0.50000000  0.33333333  5.787037e-04
  0.00000000  0.50000000  0.41666667  5.787037e-04
  0.00000000  0.50000000  0.50000000  5.787037e-04
  0.00000000  0.50000000  0.58333333  5.787037e-04
  0.00000000  0.50000000  0.66666667  5.787037e-04
  0.00000000  0.50000000  0.75000000  5.787037e-04
  0.00000000  0.50000000  0.83333333  5.787037e-04
  0.00000000  0.50000000  0.91666667  5.787037e-04
  0.00000000  0.58333333  0.00000000  5.787037e-04
  0.00000000  0.58333333  0.08333333  5.787037e-04
  0.00000000  0.58333333  0.16666667  5.787037e-04
  0.00000000  0.58333333  0.25000000  5.787037e-04
  0.00000000  0.58333333  0.33333333  5.787037e-04
  0.00000000  0.58333333  0.41666667  5.787037e-04
  0.00000000  0.58333333  0.50000000  5.787037e-04
  0.00000000  0.58333333  0.58333333  5.787037e-04
  0.00000000  0.58333333  0.66666667  5.787037e-04
  0.00000000  0.58333333  0.75000000  5.787037e-04
  0.00000000  0.58333333  0.83333333  5.787037e-04
  0.00000000  0.58333333  0.91666667  5.787037e-04
  0.00000000  0.66666667  0.00000000  5.787037e-04
  0.00000000  0.66666667  0.08333333  5.787037e-04
  0.00000000  0.66666667  0.16666667  5.787037e-04
  0.00000000  0.66666667  0.25000000  5.787037e-04
  0.00000000  0.66666667  0.33333333  5.787037e-04
  0.00000000  0.66666667  0.41666667  5.787037e-04
  0.00000000  0.66666667  0.50000000  5.787037e-04
  0.00000000  0.66666667  0.58333333  5.787037e-04
  0.00000000  0.66666667  0.66666667  5.787037e-04
  0.00000000  0.66666667  0.75000000  5.787037e-04
  0.00000000  0.66666667  0.83333333  5.787037e-04
  0.00000000  0.66666667  0.91666667  5.787037e-04
  0.00000000  0.75000000  0.00000000  5.787037e-04
  0.00000000  0.75000000  0.08333333  5.787037e-04
  0.00000000  0.75000000  0.16666667  5.787037e-04
  0.00000000  0.75000000  0.25000000  5.787037e-04
  0.00000000  0.75000000  0.33333333  5.787037e-04
  0.00000000  0.75000000  0.41666667  5.787037e-04
  0.00000000  0.75000000  0.50000000  5.787037e-04
  0.00000000  0.75000000  0.58333333  5.787037e-04
  0.00000000  0.75000000  0.66666667  5.787037e-04
  0.00000000  0.75000000  0.75000000  5.787037e-04
  0.00000000  0.75000000  0.83333333  5.787037e-04
  0.00000000  0.75000000  0.91666667  5.787037e-04
  0.00000000  0.83333333  0.00000000  5.787037e-04
  0.00000000  0.83333333  0.08333333  5.787037e-04
  0.00000000  0.83333333  0.16666667  5.787037e-04
  0.00000000  0.83333333  0.25000000  5.787037e-04
  0.00000000  0.83333333  0.33333333  5.787037e-04
  0.00000000  0.83333333  0.41666667  5.787037e-04
  0.00000000  0.83333333  0.50000000  5.787037e-04
  0.00000000  0.83333333  0.58333333  5.787037e-04
  0.00000000  0.83333333  0.66666667  5.787037e-04
  0.00000000  0.83333333  0.75000000  5.787037e-04
  0.00000000  0.83333333  0.83333333  5.787037e-04
  0.00000000  0.83333333  0.91666667  5.787037e-04
  0.00000000  0.91666667  0.00000000  5.787037e-04
  0.00000000  0.91666667  0.08333333  5.787037e-04
  0.00000000  0.91666667  0.16666667  5.787037e-04
  0.00000000  0.91666667  0.25000000  5.787037e-04
  0.00000000  0.91666667  0.33333333  5.787037e-04
  0.00000000  0.91666667  0.41666667  5.787037e-04
  0.00000000  0.91666667  0.50000000  5.787037e-04
  0.00000000  0.91666667  0.58333333  5.787037e-04
  0.00000000  0.91666667  0.66666667  5.787037e-04
  0.00000000  0.91666667  0.75000000  5.787037e-04
  0.00000000  0.91666667  0.83333333  5.787037e-04
  0.00000000  0.91666667  0.91666667  5.787037e-04
  0.08333333  0.00000000  0.00000000  5.787037e-04
  0.08333333  0.00000000  0.08333333  5.787037e-04
  0.08333333  0.00000000  0.16666667  5.787037e-04
  0.08333333  0.00000000  0.25000000  5.787037e-04
  0.08333333  0.00000000  0.33333333  5.787037e-04
  0.08333333  0.00000000  0.41666667  5.787037e-04
  0.08333333  0.00000000  0.50000000  5.787037e-04
  0.08333333  0.00000000  0.58333333  5.787037e-04
  0.08333333  0.00000000  0.66666667  5.787037e-04
  0.08333333  0.00000000  0.75000000  5.787037e-04
  0.08333333  0.00000000  0.83333333  5.787037e-04
  0.08333333  0.00000000  0.91666667  5.787037e-04
  0.08333333  0.08333333  0.00000000  5.787037e-04
  0.08333333  0.08333333  0.08333333  5.787037e-04
  0.08333333  0.08333333  0.16666667  5.787037e-04
  0.08333333  0.08333333  0.25000000  5.787037e-04
  0.08333333  0.08333333  0.33333333  5.787037e-04
  0.08333333  0.08333333  0.41666667  5.787037e-04
  0.08333333  0.08333333  0.50000000  5.787037e-04
  0.08333333  0.08333333  0.58333333  5.787037e-04
  0.08333333  0.08333333  0.66666667  5.787037e-04
  0.08333333  0.08333333  0.75000000  5.787037e-04
  0.08333333  0.08333333  0.83333333  5.787037e-04
  0.08333333  0.08333333  0.91666667  5.787037e-04
  0.08333333  0.16666667  0.00000000  5.787037e-04
  0.08333333  0.16666667  0.08333333  5.787037e-04
  0.08333333  0.16666667  0.16666667  5.787037e-04
  0.08333333  0.16666667  0.25000000  5.787037e-04
  0.08333333  0.16666667  0.33333333  5.787037e-04
  0.08333333  0.16666667  0.41666667  5.787037e-04
  0.08333333  0.16666667  0.50000000  5.787037e-04
  0.08333333  0.16666667  0.58333333  5.787037e-04
  0.08333333  0.16666667  0.66666667  5.787037e-04
  0.08333333  0.16666667  0.75000000  5.787037e-04
  0.08333333  0.16666667  0.83333333  5.787037e-04
  0.08333333  0.16666667  0.91666667  5.787037e-04
  0.08333333  0.25000000  0.00000000  5.787037e-04
  0.08333333  0.25000000  0.08333333  5.787037e-04
  0.08333333  0.25000000  0.16666667  5.787037e-04
  0.08333333  0.25000000  0.25000000  5.787037e-04
  0.08333333  0.25000000  0.33333333  5.787037e-04
  0.08333333  0.25000000  0.41666667  5.787037e-04
  0.08333333  0.25000000  0.50000000  5.787037e-04
  0.08333333  0.25000000  0.58333333  5.787037e-04
  0.08333333  0.25000000  0.66666667  5.787037e-04
  0.08333333  0.25000000  0.75000000  5.787037e-04
  0.08333333  0.25000000  0.83333333  5.787037e-04
  0.08333333  0.25000000  0.91666667  5.787037e-04
  0.08333333  0.33333333  0.00000000  5.787037e-04
  0.08333333  0.33333333  0.08333333  5.787037e-04
  0.08333333  0.33333333  0.16666667  5.787037e-04
  0.08333333  0.33333333  0.25000000  5.787037e-04
  0.08333333  0.33333333  0.33333333  5.787037e-04
  0.08333333  0.33333333  0.41666667  5.787037e-04
  0.08333333  0.33333333  0.50000000  5.787037e-04
  0.08333333  0.33333333  0.58333333  5.787037e-04
  0.08333333  0.33333333  0.66666667  5.787037e-04
  0.08333333  0.33333333  0.75000000  5.787037e-04
  0.08333333  0.33333333  0.83333333  5.787037e-04
  0.08333333  0.33333333  0.91666667  5.787037e-04
  0.08333333  0.41666667  0.00000000  5.787037e-04
  0.08333333  0.41666667  0.08333333  5.787037e-04
  0.08333333  0.41666667  0.16666667  5.787037e-04
  0.08333333  0.41666667  0.25000000  5.787037e-04
  0.08333333  0.41666667  0.33333333  5.787037e-04
  0.08333333  0.41666667  0.41666667  5.787037e-04
  0.08333333  0.41666667  0.50000000  5.787037e-04
  0.08333333  0.41666667  0.58333333  5.787037e-04
  0.08333333  0.41666667  0.66666667  5.787037e-04
  0.08333333  0.41666667  0.75000000  5.787037e-04
  0.08333333  0.41666667  0.83333333  5.787037e-04
  0.08333333  0.41666667  0.91666667  5.787037e-04
  0.08333333  0.50000000  0.00000000  5.787037e-04
  0.08333333  0.50000000  0.08333333  5.787037e-04
  0.08333333  0.50000000  0.16666667  5.787037e-04
  0.08333333  0.50000000  0.25000000  5.787037e-04
  0.08333333  0.50000000  0.33333333  5.787037e-04
  0.08333333  0.50000000  0.41666667  5.787037e-04
  0.08333333  0.50000000  0.50000000  5.787037e-04
  0.08333333  0.50000000  0.58333333  5.787037e-04
  0.08333333  0.50000000  0.66666667  5.787037e-04
  0.08333333  0.50000000  0.75000000  5.787037e-04
  0.08333333  0.50000000  0.83333333  5.787037e-04
  0.08333333  0.50000000  0.91666667  5.787037e-04
  0.08333333  0.58333333  0.00000000  5.787037e-04
  0.08333333  0.58333333  0.08333333  5.787037e-04
  0.08333333  0.58333333  0.16666667  5.787037e-04
  0.08333333  0.58333333  0.25000000  5.787037e-04
  0.08333333  0.58333333  0.33333333  5.787037e-04
  0.08333333  0.58333333  0.41666667  5.787037e-04
  0.08333333  0.58333333  0.50000000  5.787037e-04
  0.08333333  0.58333333  0.58333333  5.787037e-04
  0.08333333  0.58333333  0.66666667  5.787037e-04
  0.08333333  0.58333333  0.75000000  5.787037e-04
  0.08333333  0.58333333  0.83333333  5.787037e-04
  0.08333333  0.58333333  0.91666667  5.787037e-04
  0.08333333  0.66666667  0.00000000  5.787037e-04
  0.08333333  0.66666667  0.08333333  5.787037e-04
  0.08333333  0.66666667  0.16666667  5.787037e-04
  0.08333333  0.66666667  0.25000000  5.787037e-04
  0.08333333  0.66666667  0.33333333  5.787037e-04
  0.08333333  0.66666667  0.41666667  5.787037e-04
  0.08333333  0.66666667  0.50000000  5.787037e-04
  0.08333333  0.66666667  0.58333333  5.787037e-04
  0.08333333  0.66666667  0.66666667  5.787037e-04
  0.08333333  0.66666667  0.75000000  5.787037e-04
  0.08333333  0.66666667  0.83333333  5.787037e-04
  0.08333333  0.66666667  0.91666667  5.787037e-04
  0.08333333  0.75000000  0.00000000  5.787037e-04
  0.08333333  0.75000000  0.08333333  5.787037e-04
  0.08333333  0.75000000  0.16666667  5.787037e-04
  0.08333333  0.75000000  0.25000000  5.787037e-04
  0.08333333  0.75000000  0.33333333  5.787037e-04
  0.08333333  0.75000000  0.41666667  5.787037e-04
  0.08333333  0.75000000  0.50000000  5.787037e-04
  0.08333333  0.75000000  0.58333333  5.787037e-04
  0.08333333  0.75000000  0.66666667  5.787037e-04
  0.08333333  0.75000000  0.75000000  5.787037e-04
  0.08333333  0.75000000  0.83333333  5.787037e-04
  0.08333333  0.75000000  0.91666667  5.787037e-04
  0.08333333  0.83333333  0.00000000  5.787037e-04
  0.08333333  0.83333333  0.08333333  5.787037e-04
  0.08333333  0.83333333  0.16666667  5.787037e-04
  0.08333333  0.83333333  0.25000000  5.787037e-04
  0.08333333  0.83333333  0.33333333  5.787037e-04
  0.08333333  0.83333333  0.41666667  5.787037e-04
  0.08333333  0.83333333  0.50000000  5.787037e-04
  0.08333333  0.83333333  0.58333333  5.787037e-04
  0.08333333  0.83333333  0.66666667  5.787037e-04
  0.08333333  0.83333333  0.75000000  5.787037e-04
  0.08333333  0.83333333  0.83333333  5.787037e-04
  0.08333333  0.83333333  0.91666667  5.787037e-04
  0.08333333  0.91666667  0.00000000  5.787037e-04
  0.08333333  0.91666667  0.08333333  5.787037e-04
  0.08333333  0.91666667  0.16666667  5.787037e-04
  0.08333333  0.91666667  0.25000000  5.787037e-04
  0.08333333  0.91666667  0.33333333  5.787037e-04
  0.08333333  0.91666667  0.41666667  5.787037e-04
  0.08333333  0.91666667  0.50000000  5.787037e-04
  0.08333333  0.91666667  0.58333333  5.787037e-04
  0.08333333  0.91666667  0.66666667  5.787037e-04
  0.08333333  0.91666667  0.75000000  5.787037e-04
  0.08333333  0.91666667  0.83333333  5.787037e-04
  0.08333333  0.91666667  0.91666667  5.787037e-04
  0.16666667  0.00000000  0.00000000  5.787037e-04
  0.16666667  0.00000000  0.08333333  5.787037e-04
  0.16666667  0.00000000  0.16666667  5.787037e-04
  0.16666667  0.00000000  0.25000000  5.787037e-04
  0.16666667  0.00000000  0.33333333  5.787037e-04
  0.16666667  0.00000000  0.41666667  5.787037e-04
  0.16666667  0.00000000  0.50000000  5.787037e-04
  0.16666667  0.00000000  0.58333333  5.787037e-04
  0.16666667  0.00000000  0.66666667  5.787037e-04
  0.16666667  0.00000000  0.75000000  5.787037e-04
  0.16666667  0.00000000  0.83333333  5.787037e-04
  0.16666667  0.00000000  0.91666667  5.787037e-04
  0.16666667  0.08333333  0.00000000  5.787037e-04
  0.16666667  0.08333333  0.08333333  5.787037e-04
  0.16666667  0.08333333  0.16666667  5.787037e-04
  0.16666667  0.08333333  0.25000000  5.787037e-04
  0.16666667  0.08333333  0.33333333  5.787037e-04
  0.16666667  0.08333333  0.41666667  5.787037e-04
  0.16666667  0.08333333  0.50000000  5.787037e-04
  0.16666667  0.08333333  0.58333333  5.787037e-04
  0.16666667  0.08333333  0.66666667  5.787037e-04
  0.16666667  0.08333333  0.75000000  5.787037e-04
  0.16666667  0.08333333  0.83333333  5.787037e-04
  0.16666667  0.08333333  0.91666667  5.787037e-04
  0.16666667  0.16666667  0.00000000  5.787037e-04
  0.16666667  0.16666667  0.08333333  5.787037e-04
  0.16666667  0.16666667  0.16666667  5.787037e-04
  0.16666667  0.16666667  0.25000000  5.787037e-04
  0.16666667  0.16666667  0.33333333  5.787037e-04
  0.16666667  0.16666667  0.41666667  5.787037e-04
  0.16666667  0.16666667  0.50000000  5.787037e-04
  0.16666667  0.16666667  0.58333333  5.787037e-04
  0.16666667  0.16666667  0.66666667  5.787037e-04
  0.16666667  0.16666667  0.75000000  5.787037e-04
  0.16666667  0.16666667  0.83333333  5.787037e-04
  0.16666667  0.16666667  0.91666667  5.787037e-04
  0.16666667  0.25000000  0.00000000  5.787037e-04
  0.16666667  0.25000000  0.08333333  5.787037e-04
  0.16666667  0.25000000  0.16666667  5.787037e-04
  0.16666667  0.25000000  0.25000000  5.787037e-04
  0.16666667  0.25000000  0.33333333  5.787037e-04
  0.16666667  0.25000000  0.41666667  5.787037e-04
  0.16666667  0.25000000  0.50000000  5.787037e-04
  0.16666667  0.25000000  0.58333333  5.787037e-04
  0.16666667  0.25000000  0.66666667  5.787037e-04
  0.16666667  0.25000000  0.75000000  5.787037e-04
  0.16666667  0.25000000  0.83333333  5.787037e-04
  0.16666667  0.25000000  0.91666667  5.787037e-04
  0.16666667  0.33333333  0.00000000  5.787037e-04
  0.16666667  0.33333333  0.08333333  5.787037e-04
  0.16666667  0.33333333  0.16666667  5.787037e-04
  0.16666667  0.33333333  0.25000000  5.787037e-04
  0.16666667  0.33333333  0.33333333  5.787037e-04
  0.16666667  0.33333333  0.41666667  5.787037e-04
  0.16666667  0.33333333  0.50000000  5.787037e-04
  0.16666667  0.33333333  0.58333333  5.787037e-04
  0.16666667  0.33333333  0.66666667  5.787037e-04
  0.16666667  0.33333333  0.75000000  5.787037e-04
  0.16666667  0.33333333  0.83333333  5.787037e-04
  0.16666667  0.33333333  0.91666667  5.787037e-04
  0.16666667  0.41666667  0.00000000  5.787037e-04
  0.16666667  0.41666667  0.08333333  5.787037e-04
  0.16666667  0.41666667  0.16666667  5.787037e-04
  0.16666667  0.41666667  0.25000000  5.787037e-04
  0.16666667  0.41666667  0.33333333  5.787037e-04
  0.16666667  0.41666667  0.41666667  5.787037e-04
  0.16666667  0.41666667  0.50000000  5.787037e-04
  0.16666667  0.41666667  0.58333333  5.787037e-04
  0.16666667  0.41666667  0.66666667  5.787037e-04
  0.16666667  0.41666667  0.75000000  5.787037e-04
  0.16666667  0.41666667  0.83333333  5.787037e-04
  0.16666667  0.41666667  0.91666667  5.787037e-04
  0.16666667  0.50000000  0.00000000  5.787037e-04
  0.16666667  0.50000000  0.08333333  5.787037e-04
  0.16666667  0.50000000  0.16666667  5.787037e-04
  0.16666667  0.50000000  0.25000000  5.787037e-04
  0.16666667  0.50000000  0.33333333  5.787037e-04
  0.16666667  0.50000000  0.41666667  5.787037e-04
  0.16666667  0.50000000  0.50000000  5.787037e-04
  0.16666667  0.50000000  0.58333333  5.787037e-04
  0.16666667  0.50000000  0.66666667  5.787037e-04
  0.16666667  0.50000000  0.75000000  5.787037e-04
  0.16666667  0.50000000  0.83333333  5.787037e-04
  0.16666667  0.50000000  0.91666667  5.787037e-04
  0.16666667  0.58333333  0.00000000  5.787037e-04
  0.16666667  0.58333333  0.08333333  5.787037e-04
  0.16666667  0.58333333  0.16666667  5.787037e-04
  0.16666667  0.58333333  0.25000000  5.787037e-04
  0.16666667  0.58333333  0.33333333  5.787037e-04
  0.16666667  0.58333333  0.41666667  5.787037e-04
  0.16666667  0.58333333  0.50000000  5.787037e-04
  0.16666667  0.58333333  0.58333333  5.787037e-04
  0.16666667  0.58333333  0.66666667  5.787037e-04
  0.16666667  0.58333333  0.75000000  5.787037e-04
  0.16666667  0.58333333  0.83333333  5.787037e-04
  0.16666667  0.58333333  0.91666667  5.787037e-04
  0.16666667  0.66666667  0.00000000  5.787037e-04
  0.16666667  0.66666667  0.08333333  5.787037e-04
  0.16666667  0.66666667  0.16666667  5.787037e-04
  0.16666667  0.66666667  0.25000000  5.787037e-04
  0.16666667  0.66666667  0.33333333  5.787037e-04
  0.16666667  0.66666667  0.41666667  5.787037e-04
  0.16666667  0.66666667  0.50000000  5.787037e-04
  0.16666667  0.66666667  0.58333333  5.787037e-04
  0.16666667  0.66666667  0.66666667  5.787037e-04
  0.16666667  0.66666667  0.75000000  5.787037e-04
  0.16666667  0.66666667  0.83333333  5.787037e-04
  0.16666667  0.66666667  0.91666667  5.787037e-04
  0.16666667  0.75000000  0.00000000  5.787037e-04
  0.16666667  0.75000000  0.08333333  5.787037e-04
  0.16666667  0.75000000  0.16666667  5.787037e-04
  0.16666667  0.75000000  0.25000000  5.787037e-04
  0.16666667  0.75000000  0.33333333  5.787037e-04
  0.16666667  0.75000000  0.41666667  5.787037e-04
  0.16666667  0.75000000  0.50000000  5.787037e-04
  0.16666667  0.75000000  0.58333333  5.787037e-04
  0.16666667  0.75000000  0.66666667  5.787037e-04
  0.16666667  0.75000000  0.75000000  5.787037e-04
  0.16666667  0.75000000  0.83333333  5.787037e-04
  0.16666667  0.75000000  0.91666667  5.787037e-04
  0.16666667  0.83333333  0.00000000  5.787037e-04
  0.16666667  0.83333333  0.08333333  5.787037e-04
  0.16666667  0.83333333  0.16666667  5.787037e-04
  0.16666667  0.83333333  0.25000000  5.787037e-04
  0.16666667  0.83333333  0.33333333  5.787037e-04
  0.16666667  0.83333333  0.41666667  5.787037e-04
  0.16666667  0.83333333  0.50000000  5.787037e-04
  0.16666667  0.83333333  0.58333333  5.787037e-04
  0.16666667  0.83333333  0.66666667  5.787037e-04
  0.16666667  0.83333333  0.75000000  5.787037e-04
  0.16666667  0.83333333  0.83333333  5.787037e-04
  0.16666667  0.83333333  0.91666667  5.787037e-04
  0.16666667  0.91666667  0.00000000  5.787037e-04
  0.16666667  0.91666667  0.08333333  5.787037e-04
  0.16666667  0.91666667  0.16666667  5.787037e-04
  0.16666667  0.91666667  0.25000000  5.787037e-04
  0.16666667  0.91666667  0.33333333  5.787037e-04
  0.16666667  0.91666667  0.41666667  5.787037e-04
  0.16666667  0.91666667  0.50000000  5.787037e-04
  0.16666667  0.91666667  0.58333333  5.787037e-04
  0.16666667  0.91666667  0.66666667  5.787037e-04
  0.16666667  0.91666667  0.75000000  5.787037e-04
  0.16666667  0.91666667  0.83333333  5.787037e-04
  0.16666667  0.91666667  0.91666667  5.787037e-04
  0.25000000  0.00000000  0.00000000  5.787037e-04
  0.25000000  0.00000000  0.08333333  5.787037e-04
  0.25000000  0.00000000  0.16666667  5.787037e-04
  0.25000000  0.00000000  0.25000000  5.787037e-04
  0.25000000  0.00000000  0.33333333  5.787037e-04
  0.25000000  0.00000000  0.41666667  5.787037e-04
  0.25000000  0.00000000  0.50000000  5.787037e-04
  0.25000000  0.00000000  0.58333333  5.787037e-04
  0.25000000  0.00000000  0.66666667  5.787037e-04
  0.25000000  0.00000000  0.75000000  5.787037e-04
  0.25000000  0.00000000  0.83333333  5.787037e-04
  0.25000000  0.00000000  0.91666667  5.787037e-04
  0.25000000  0.08333333  0.00000000  5.787037e-04
  0.25000000  0.08333333  0.08333333  5.787037e-04
  0.25000000  0.08333333  0.16666667  5.787037e-04
  0.25000000  0.08333333  0.25000000  5.787037e-04
  0.25000000  0.08333333  0.33333333  5.787037e-04
  0.25000000  0.08333333  0.41666667  5.787037e-04
  0.25000000  0.08333333  0.50000000  5.787037e-04
  0.25000000  0.08333333  0.58333333  5.787037e-04
  0.25000000  0.08333333  0.66666667  5.787037e-04
  0.25000000  0.08333333  0.75000000  5.787037e-04
  0.25000000  0.08333333  0.83333333  5.787037e-04
  0.25000000  0.08333333  0.91666667  5.787037e-04
  0.25000000  0.16666667  0.00000000  5.787037e-04
  0.25000000  0.16666667  0.08333333  5.787037e-04
  0.25000000  0.16666667  0.16666667  5.787037e-04
  0.25000000  0.16666667  0.25000000  5.787037e-04
  0.25000000  0.16666667  0.33333333  5.787037e-04
  0.25000000  0.16666667  0.41666667  5.787037e-04
  0.25000000  0.16666667  0.50000000  5.787037e-04
  0.25000000  0.16666667  0.58333333  5.787037e-04
  0.25000000  0.16666667  0.66666667  5.787037e-04
  0.25000000  0.16666667  0.75000000  5.787037e-04
  0.25000000  0.16666667  0.83333333  5.787037e-04
  0.25000000  0.16666667  0.91666667  5.787037e-04
  0.25000000  0.25000000  0.00000000  5.787037e-04
  0.25000000  0.25000000  0.08333333  5.787037e-04
  0.25000000  0.25000000  0.16666667  5.787037e-04
  0.25000000  0.25000000  0.25000000  5.787037e-04
  0.25000000  0.25000000  0.33333333  5.787037e-04
  0.25000000  0.25000000  0.41666667  5.787037e-04
  0.25000000  0.25000000  0.50000000  5.787037e-04
  0.25000000  0.25000000  0.58333333  5.787037e-04
  0.25000000  0.25000000  0.66666667  5.787037e-04
  0.25000000  0.25000000  0.75000000  5.787037e-04
  0.25000000  0.25000000  0.83333333  5.787037e-04
  0.25000000  0.25000000  0.91666667  5.787037e-04
  0.25000000  0.33333333  0.00000000  5.787037e-04
  0.25000000  0.33333333  0.08333333  5.787037e-04
  0.25000000  0.33333333  0.16666667  5.787037e-04
  0.25000000  0.33333333  0.25000000  5.787037e-04
  0.25000000  0.33333333  0.33333333  5.787037e-04
  0.25000000  0.33333333  0.41666667  5.787037e-04
  0.25000000  0.33333333  0.50000000  5.787037e-04
  0.25000000  0.33333333  0.58333333  5.787037e-04
  0.25000000  0.33333333  0.66666667  5.787037e-04
  0.25000000  0.33333333  0.75000000  5.787037e-04
  0.25000000  0.33333333  0.83333333  5.787037e-04
  0.25000000  0.33333333  0.91666667  5.787037e-04
  0.25000000  0.41666667  0.00000000  5.787037e-04
  0.25000000  0.41666667  0.08333333  5.787037e-04
  0.25000000  0.41666667  0.16666667  5.787037e-04
  0.25000000  0.41666667  0.25000000  5.787037e-04
  0.25000000  0.41666667  0.33333333  5.787037e-04
  0.25000000  0.41666667  0.41666667  5.787037e-04
  0.25000000  0.41666667  0.50000000  5.787037e-04
  0.25000000  0.41666667  0.58333333  5.787037e-04
  0.25000000  0.41666667  0.66666667  5.787037e-04
  0.25000000  0.41666667  0.75000000  5.787037e-04
  0.25000000  0.41666667  0.83333333  5.787037e-04
  0.25000000  0.41666667  0.91666667  5.787037e-04
  0.25000000  0.50000000  0.00000000  5.787037e-04
  0.25000000  0.50000000  0.08333333  5.787037e-04
  0.25000000  0.50000000  0.16666667  5.787037e-04
  0.25000000  0.50000000  0.25000000  5.787037e-04
  0.25000000  0.50000000  0.33333333  5.787037e-04
  0.25000000  0.50000000  0.41666667  5.787037e-04
  0.25000000  0.50000000  0.50000000  5.787037e-04
  0.25000000  0.50000000  0.58333333  5.787037e-04
  0.25000000  0.50000000  0.66666667  5.787037e-04
  0.25000000  0.50000000  0.75000000  5.787037e-04
  0.25000000  0.50000000  0.83333333  5.787037e-04
  0.25000000  0.50000000  0.91666667  5.787037e-04
  0.25000000  0.58333333  0.00000000  5.787037e-04
  0.25000000  0.58333333  0.08333333  5.787037e-04
  0.25000000  0.58333333  0.16666667  5.787037e-04
  0.25000000  0.58333333  0.25000000  5.787037e-04
  0.25000000  0.58333333  0.33333333  5.787037e-04
  0.25000000  0.58333333  0.41666667  5.787037e-04
  0.25000000  0.58333333  0.50000000  5.787037e-04
  0.25000000  0.58333333  0.58333333  5.787037e-04
  0.25000000  0.58333333  0.66666667  5.787037e-04
  0.25000000  0.58333333  0.75000000  5.787037e-04
  0.25000000  0.58333333  0.83333333  5.787037e-04
  0.25000000  0.58333333  0.91666667  5.787037e-04
  0.25000000  0.66666667  0.00000000  5.787037e-04
  0.25000000  0.66666667  0.08333333  5.787037e-04
  0.25000000  0.66666667  0.16666667  5.787037e-04
  0.25000000  0.66666667  0.25000000  5.787037e-04
  0.25000000  0.66666667  0.33333333  5.787037e-04
  0.25000000  0.66666667  0.41666667  5.787037e-04
  0.25000000  0.66666667  0.50000000  5.787037e-04
  0.25000000  0.66666667  0.58333333  5.787037e-04
  0.25000000  0.66666667  0.66666667  5.787037e-04
  0.25000000  0.66666667  0.75000000  5.787037e-04
  0.25000000  0.66666667  0.83333333  5.787037e-04
  0.25000000  0.66666667  0.91666667  5.787037e-04
  0.25000000  0.75000000  0.00000000  5.787037e-04
  0.25000000  0.75000000  0.08333333  5.787037e-04
  0.25000000  0.75000000  0.16666667  5.787037e-04
  0.25000000  0.75000000  0.25000000  5.787037e-04
  0.25000000  0.75000000  0.33333333  5.787037e-04
  0.25000000  0.75000000  0.41666667  5.787037e-04
  0.25000000  0.75000000  0.50000000  5.787037e-04
  0.25000000  0.75000000  0.58333333  5.787037e-04
  0.25000000  0.75000000  0.66666667  5.787037e-04
  0.25000000  0.75000000  0.75000000  5.787037e-04
  0.25000000  0.75000000  0.83333333  5.787037e-04
  0.25000000  0.75000000  0.91666667  5.787037e-04
  0.25000000  0.83333333  0.00000000  5.787037e-04
  0.25000000  0.83333333  0.08333333  5.787037e-04
  0.25000000  0.83333333  0.16666667  5.787037e-04
  0.25000000  0.83333333  0.25000000  5.787037e-04
  0.25000000  0.83333333  0.33333333  5.787037e-04
  0.25000000  0.83333333  0.41666667  5.787037e-04
  0.25000000  0.83333333  0.50000000  5.787037e-04
  0.25000000  0.83333333  0.58333333  5.787037e-04
  0.25000000  0.83333333  0.66666667  5.787037e-04
  0.25000000  0.83333333  0.75000000  5.787037e-04
  0.25000000  0.83333333  0.83333333  5.787037e-04
  0.25000000  0.83333333  0.91666667  5.787037e-04
  0.25000000  0.91666667  0.00000000  5.787037e-04
  0.25000000  0.91666667  0.08333333  5.787037e-04
  0.25000000  0.91666667  0.16666667  5.787037e-04
  0.25000000  0.91666667  0.25000000  5.787037e-04
  0.25000000  0.91666667  0.33333333  5.787037e-04
  0.25000000  0.91666667  0.41666667  5.787037e-04
  0.25000000  0.91666667  0.50000000  5.787037e-04
  0.25000000  0.91666667  0.58333333  5.787037e-04
  0.25000000  0.91666667  0.66666667  5.787037e-04
  0.25000000  0.91666667  0.75000000  5.787037e-04